c 
c G(n,p) graph
c graph gen seed     : 8613
c number of vertices : 25
c max number of edges: 500
c edge probability   : 0.400000
c data structure     : sparse
c
c           Graph Stats
c number of vertices  : 25
c nonisolated vertices: 25
c number of edges     : 135
c edge density        : 0.450000
c max degree          : 17
c avg degree          : 10.80
c min degree          : 5
p col 25 135
e 1 24
e 1 21
e 1 20
e 1 18
e 1 17
e 1 13
e 1 10
e 1 9
e 1 7
e 1 5
e 2 25
e 2 24
e 2 23
e 2 22
e 2 21
e 2 18
e 2 17
e 2 12
e 2 11
e 2 10
e 2 6
e 2 4
e 3 24
e 3 18
e 3 13
e 3 12
e 3 11
e 3 10
e 3 9
e 3 6
e 4 22
e 4 19
e 4 18
e 4 16
e 4 13
e 4 12
e 4 11
e 4 8
e 4 6
e 5 25
e 5 24
e 5 18
e 5 17
e 5 13
e 5 11
e 5 10
e 5 9
e 5 7
e 5 6
e 6 24
e 6 23
e 6 22
e 6 21
e 6 19
e 6 18
e 6 16
e 6 15
e 6 11
e 6 10
e 6 9
e 6 8
e 6 7
e 7 25
e 7 24
e 7 19
e 7 18
e 7 14
e 7 13
e 7 12
e 7 10
e 7 9
e 8 25
e 8 23
e 8 12
e 8 11
e 8 10
e 9 25
e 9 23
e 9 22
e 9 21
e 9 20
e 9 18
e 9 17
e 9 15
e 9 14
e 9 13
e 9 10
e 10 23
e 10 21
e 10 19
e 10 17
e 10 16
e 10 13
e 10 12
e 10 11
e 11 25
e 11 23
e 11 21
e 11 18
e 11 17
e 11 13
e 12 25
e 12 24
e 12 23
e 12 21
e 12 20
e 12 16
e 12 15
e 12 14
e 13 23
e 13 22
e 13 19
e 13 14
e 14 22
e 15 21
e 15 16
e 16 24
e 16 20
e 16 18
e 16 17
e 17 23
e 17 21
e 17 19
e 18 25
e 18 24
e 18 22
e 19 21
e 20 24
e 20 23
e 20 22
e 21 22
e 22 23
e 23 25
e 23 24
e 24 25
